# Solution for model chemical change_srl_ilp
# Objective value = 1.5339264363387837e+00
Z_384_0_0 0
Z_384_0_1 0
Z_384_0_2 1
Z_384_0_3 0
Z_283_0_0 0
Z_283_0_1 1
Z_283_0_2 0
Z_283_0_3 0
Z_208_0_0 0
Z_208_0_1 0
Z_208_0_2 0
Z_208_0_3 1
Z_208_2_0 1
Z_208_2_1 0
Z_208_2_2 0
Z_208_2_3 0
Z_208_1_0 0
Z_208_1_1 0
Z_208_1_2 1
Z_208_1_3 0
